# force external="/home/andersx/dev/goptimizer/dummy_example.py" nosymmetry

Title

0 1
O         -0.70220       -0.05606        0.00994
H         -1.02219        0.84678       -0.01149
H          0.25752        0.04212        0.00522

